DP                                      
   1.00000000000000     
     5.6044127045674621   -0.0016938492168936   -0.0371318213390893
    -0.0027511741817113    5.6170255604031549   -0.1166405410663649
    -0.0526698472119207   -0.1731695128419633    8.0067490108259616
   La   Zn   Mo   O 
     4     2     2    12
Direct
  0.0071969343129379  0.4969503076120770  0.2581305933217454
  0.0153690707239426  0.5124499608623561  0.7498620564938449
  0.5153646770721705  0.0124349420408278  0.2498582112505106
  0.5071976729379886  0.9969617567664810  0.7581332441257028
  0.0112560886960131  0.0046962286000245  0.0039920405667098
  0.5112547045953211  0.5046929552331629  0.5039922826984209
  0.0112473192467699  0.0046886900794758  0.5039737157863382
  0.5112510561589190  0.5046903384349154  0.0039749236969471
  0.9548508328724085  0.0541860864899937  0.2522822084560578
  0.0676488183490252  0.9552161204002800  0.7556647476946331
  0.4548617899395885  0.5541837471481742  0.7522837148166305
  0.5676389200664861  0.4552170088846988  0.2556640190161487
  0.3154867844226015  0.2022021962969294  0.0126317240598642
  0.7070178616124385  0.8071611630078720  0.9953484739060792
  0.8057298491327497  0.3046265178698227  0.9596458526791868
  0.2167066085778113  0.7046846374948431  0.0482692518776664
  0.8155031158430431  0.7021882460805104  0.5126214213920346
  0.2069953180345800  0.3071701117482336  0.4953614546842889
  0.3057420943784198  0.8046364559407387  0.4596590815758499
  0.7166804830268221  0.2046625290085741  0.5482509819013824
 
  0.00000000E+00  0.00000000E+00  0.00000000E+00
  0.00000000E+00  0.00000000E+00  0.00000000E+00
  0.00000000E+00  0.00000000E+00  0.00000000E+00
  0.00000000E+00  0.00000000E+00  0.00000000E+00
  0.00000000E+00  0.00000000E+00  0.00000000E+00
  0.00000000E+00  0.00000000E+00  0.00000000E+00
  0.00000000E+00  0.00000000E+00  0.00000000E+00
  0.00000000E+00  0.00000000E+00  0.00000000E+00
  0.00000000E+00  0.00000000E+00  0.00000000E+00
  0.00000000E+00  0.00000000E+00  0.00000000E+00
  0.00000000E+00  0.00000000E+00  0.00000000E+00
  0.00000000E+00  0.00000000E+00  0.00000000E+00
  0.00000000E+00  0.00000000E+00  0.00000000E+00
  0.00000000E+00  0.00000000E+00  0.00000000E+00
  0.00000000E+00  0.00000000E+00  0.00000000E+00
  0.00000000E+00  0.00000000E+00  0.00000000E+00
  0.00000000E+00  0.00000000E+00  0.00000000E+00
  0.00000000E+00  0.00000000E+00  0.00000000E+00
  0.00000000E+00  0.00000000E+00  0.00000000E+00
  0.00000000E+00  0.00000000E+00  0.00000000E+00
