Double Perovskite A2BB'O6               
   1.00000000000000     
     5.8166928551885775    0.0000912721645681    0.0002690616509869
     0.0000255568175708    5.8167531880825063   -0.0003397490017135
     0.0006044002057601    0.0004286644317464    8.3052834828610536
   ion1 ion2   ion3 ion4
   4     2     2    12
Direct
0.0	0.5	0.25
0.0	0.5	0.75
0.5	0.0	0.25
0.5	0.0	0.75
0.0	0.0	0.0
0.5	0.5	0.5
0.0	0.0	0.5
0.5	0.5	0.0
0.0	0.0	0.25
0.0	0.0	0.75
0.5	0.5	0.75
0.5	0.5	0.25
0.25	0.25	0.0
0.75	0.75	0.0
0.75	0.25	0.0
0.25	0.75	0.0
0.75	0.75	0.5
0.25	0.25	0.5
0.25	0.75	0.5
0.75	0.25	0.5