Double Perovskite A2BB'O6               
   1.00000000000000     
	5.7583951551878130	0.0001369082468521	0.0004035924764804
	0.0000383352263562	5.8155802818659108	-0.0005096235025703
	0.0009066003086401	0.0002829185249526	8.1759091049836421
   La Mn   As O
   4     2     2    12
Direct
0.0	0.5	0.25
0.0	0.5	0.75
0.5	0.0	0.25
0.5	0.0	0.75
0.0	0.0	0.0
0.5	0.5	0.5
0.0	0.0	0.5
0.5	0.5	0.0
0.0	0.0	0.25
0.0	0.0	0.75
0.5	0.5	0.75
0.5	0.5	0.25
0.25	0.25	0.0
0.75	0.75	0.0
0.75	0.25	0.0
0.25	0.75	0.0
0.75	0.75	0.5
0.25	0.25	0.5
0.25	0.75	0.5
0.75	0.25	0.5